p cnf 302 1378
c p weight 124 0 0
c p weight -124 1 0
c p weight 125 1 0
c p weight -125 1 0
c p weight 299 -1 0
c p weight -299 1 0
c p weight 302 0.5 0
302 0
-119 0
-117 0
-115 0
-113 0
-111 0
-109 0
-107 0
-105 0
-103 0
-101 0
-99 0
-97 0
-95 0
-93 0
-91 0
-89 0
-87 0
-85 0
-83 0
-81 0
-79 0
-77 0
-75 0
-73 0
-71 0
-69 0
-67 0
-65 0
-63 0
-61 0
-59 0
-57 0
-55 0
-53 0
-51 0
-49 0
-47 0
-45 0
-43 0
-41 0
-39 0
-37 0
-35 0
-33 0
-31 0
-29 0
-27 0
-25 0
-23 0
-21 0
-19 0
-17 0
-15 0
-13 0
-11 0
-9 0
-7 0
-5 0
-3 0
-1 0
120 -119 117 0
120 -119 118 0
-120 119 117 0
-120 119 118 0
120 119 -117 -118 0
-120 -119 -117 -118 0
121 117 -118 0
121 -117 118 0
-121 117 118 0
-121 -117 -118 0
122 123 -120 0
122 -120 121 0
-122 123 120 0
-122 120 121 0
122 -120 -117 0
-122 120 -117 0
122 -123 120 117 -121 0
-122 -123 -120 117 -121 0
123 -117 121 0
-123 117 121 0
-124 121 0
123 -124 -117 0
-123 -124 117 0
123 124 117 -121 0
-123 124 -117 -121 0
-125 121 0
123 -125 117 0
-123 -125 -117 0
123 125 -117 -121 0
-123 125 117 -121 0
126 -122 123 0
126 -122 121 0
-126 122 123 0
-126 122 121 0
126 122 -123 -121 0
-126 -122 -123 -121 0
127 123 -121 0
127 -123 121 0
-127 123 121 0
-127 -123 -121 0
128 -126 123 0
128 -126 116 0
-128 126 123 0
-128 126 116 0
128 -126 115 -127 0
128 -126 -115 127 0
-128 126 115 -127 0
-128 126 -115 127 0
128 126 -123 115 127 -116 0
128 126 -123 -115 -127 -116 0
-128 -126 -123 115 127 -116 0
-128 -126 -123 -115 -127 -116 0
130 123 -115 0
130 -123 115 0
-130 123 115 0
-130 -123 -115 0
129 127 -116 0
129 -127 116 0
-129 127 116 0
-129 -127 -116 0
131 -128 130 0
131 -128 114 0
-131 128 130 0
-131 128 114 0
131 -128 113 -116 0
131 -128 -113 116 0
-131 128 113 -116 0
-131 128 -113 116 0
131 128 -130 113 116 -114 0
131 128 -130 -113 -116 -114 0
-131 -128 -130 113 116 -114 0
-131 -128 -130 -113 -116 -114 0
133 130 -113 0
133 -130 113 0
-133 130 113 0
-133 -130 -113 0
132 116 -114 0
132 -116 114 0
-132 116 114 0
-132 -116 -114 0
134 -131 133 0
134 -131 112 0
-134 131 133 0
-134 131 112 0
134 -131 111 -114 0
134 -131 -111 114 0
-134 131 111 -114 0
-134 131 -111 114 0
134 131 -133 111 114 -112 0
134 131 -133 -111 -114 -112 0
-134 -131 -133 111 114 -112 0
-134 -131 -133 -111 -114 -112 0
136 133 -111 0
136 -133 111 0
-136 133 111 0
-136 -133 -111 0
135 114 -112 0
135 -114 112 0
-135 114 112 0
-135 -114 -112 0
137 -134 136 0
137 -134 110 0
-137 134 136 0
-137 134 110 0
137 -134 109 -112 0
137 -134 -109 112 0
-137 134 109 -112 0
-137 134 -109 112 0
137 134 -136 109 112 -110 0
137 134 -136 -109 -112 -110 0
-137 -134 -136 109 112 -110 0
-137 -134 -136 -109 -112 -110 0
139 136 -109 0
139 -136 109 0
-139 136 109 0
-139 -136 -109 0
138 112 -110 0
138 -112 110 0
-138 112 110 0
-138 -112 -110 0
140 -137 139 0
140 -137 108 0
-140 137 139 0
-140 137 108 0
140 -137 107 -110 0
140 -137 -107 110 0
-140 137 107 -110 0
-140 137 -107 110 0
140 137 -139 107 110 -108 0
140 137 -139 -107 -110 -108 0
-140 -137 -139 107 110 -108 0
-140 -137 -139 -107 -110 -108 0
142 139 -107 0
142 -139 107 0
-142 139 107 0
-142 -139 -107 0
141 110 -108 0
141 -110 108 0
-141 110 108 0
-141 -110 -108 0
143 -140 142 0
143 -140 106 0
-143 140 142 0
-143 140 106 0
143 -140 105 -108 0
143 -140 -105 108 0
-143 140 105 -108 0
-143 140 -105 108 0
143 140 -142 105 108 -106 0
143 140 -142 -105 -108 -106 0
-143 -140 -142 105 108 -106 0
-143 -140 -142 -105 -108 -106 0
145 142 -105 0
145 -142 105 0
-145 142 105 0
-145 -142 -105 0
144 108 -106 0
144 -108 106 0
-144 108 106 0
-144 -108 -106 0
146 -143 145 0
146 -143 104 0
-146 143 145 0
-146 143 104 0
146 -143 103 -106 0
146 -143 -103 106 0
-146 143 103 -106 0
-146 143 -103 106 0
146 143 -145 103 106 -104 0
146 143 -145 -103 -106 -104 0
-146 -143 -145 103 106 -104 0
-146 -143 -145 -103 -106 -104 0
148 145 -103 0
148 -145 103 0
-148 145 103 0
-148 -145 -103 0
147 106 -104 0
147 -106 104 0
-147 106 104 0
-147 -106 -104 0
149 -146 148 0
149 -146 102 0
-149 146 148 0
-149 146 102 0
149 -146 101 -104 0
149 -146 -101 104 0
-149 146 101 -104 0
-149 146 -101 104 0
149 146 -148 101 104 -102 0
149 146 -148 -101 -104 -102 0
-149 -146 -148 101 104 -102 0
-149 -146 -148 -101 -104 -102 0
151 148 -101 0
151 -148 101 0
-151 148 101 0
-151 -148 -101 0
150 104 -102 0
150 -104 102 0
-150 104 102 0
-150 -104 -102 0
152 -149 151 0
152 -149 100 0
-152 149 151 0
-152 149 100 0
152 -149 99 -102 0
152 -149 -99 102 0
-152 149 99 -102 0
-152 149 -99 102 0
152 149 -151 99 102 -100 0
152 149 -151 -99 -102 -100 0
-152 -149 -151 99 102 -100 0
-152 -149 -151 -99 -102 -100 0
154 151 -99 0
154 -151 99 0
-154 151 99 0
-154 -151 -99 0
153 102 -100 0
153 -102 100 0
-153 102 100 0
-153 -102 -100 0
155 -152 154 0
155 -152 98 0
-155 152 154 0
-155 152 98 0
155 -152 97 -100 0
155 -152 -97 100 0
-155 152 97 -100 0
-155 152 -97 100 0
155 152 -154 97 100 -98 0
155 152 -154 -97 -100 -98 0
-155 -152 -154 97 100 -98 0
-155 -152 -154 -97 -100 -98 0
157 154 -97 0
157 -154 97 0
-157 154 97 0
-157 -154 -97 0
156 100 -98 0
156 -100 98 0
-156 100 98 0
-156 -100 -98 0
158 -155 157 0
158 -155 96 0
-158 155 157 0
-158 155 96 0
158 -155 95 -98 0
158 -155 -95 98 0
-158 155 95 -98 0
-158 155 -95 98 0
158 155 -157 95 98 -96 0
158 155 -157 -95 -98 -96 0
-158 -155 -157 95 98 -96 0
-158 -155 -157 -95 -98 -96 0
160 157 -95 0
160 -157 95 0
-160 157 95 0
-160 -157 -95 0
159 98 -96 0
159 -98 96 0
-159 98 96 0
-159 -98 -96 0
161 -158 160 0
161 -158 94 0
-161 158 160 0
-161 158 94 0
161 -158 93 -96 0
161 -158 -93 96 0
-161 158 93 -96 0
-161 158 -93 96 0
161 158 -160 93 96 -94 0
161 158 -160 -93 -96 -94 0
-161 -158 -160 93 96 -94 0
-161 -158 -160 -93 -96 -94 0
163 160 -93 0
163 -160 93 0
-163 160 93 0
-163 -160 -93 0
162 96 -94 0
162 -96 94 0
-162 96 94 0
-162 -96 -94 0
164 -161 163 0
164 -161 92 0
-164 161 163 0
-164 161 92 0
164 -161 91 -94 0
164 -161 -91 94 0
-164 161 91 -94 0
-164 161 -91 94 0
164 161 -163 91 94 -92 0
164 161 -163 -91 -94 -92 0
-164 -161 -163 91 94 -92 0
-164 -161 -163 -91 -94 -92 0
166 163 -91 0
166 -163 91 0
-166 163 91 0
-166 -163 -91 0
165 94 -92 0
165 -94 92 0
-165 94 92 0
-165 -94 -92 0
167 -164 166 0
167 -164 90 0
-167 164 166 0
-167 164 90 0
167 -164 89 -92 0
167 -164 -89 92 0
-167 164 89 -92 0
-167 164 -89 92 0
167 164 -166 89 92 -90 0
167 164 -166 -89 -92 -90 0
-167 -164 -166 89 92 -90 0
-167 -164 -166 -89 -92 -90 0
169 166 -89 0
169 -166 89 0
-169 166 89 0
-169 -166 -89 0
168 92 -90 0
168 -92 90 0
-168 92 90 0
-168 -92 -90 0
170 -167 169 0
170 -167 88 0
-170 167 169 0
-170 167 88 0
170 -167 87 -90 0
170 -167 -87 90 0
-170 167 87 -90 0
-170 167 -87 90 0
170 167 -169 87 90 -88 0
170 167 -169 -87 -90 -88 0
-170 -167 -169 87 90 -88 0
-170 -167 -169 -87 -90 -88 0
172 169 -87 0
172 -169 87 0
-172 169 87 0
-172 -169 -87 0
171 90 -88 0
171 -90 88 0
-171 90 88 0
-171 -90 -88 0
173 -170 172 0
173 -170 86 0
-173 170 172 0
-173 170 86 0
173 -170 85 -88 0
173 -170 -85 88 0
-173 170 85 -88 0
-173 170 -85 88 0
173 170 -172 85 88 -86 0
173 170 -172 -85 -88 -86 0
-173 -170 -172 85 88 -86 0
-173 -170 -172 -85 -88 -86 0
175 172 -85 0
175 -172 85 0
-175 172 85 0
-175 -172 -85 0
174 88 -86 0
174 -88 86 0
-174 88 86 0
-174 -88 -86 0
176 -173 175 0
176 -173 84 0
-176 173 175 0
-176 173 84 0
176 -173 83 -86 0
176 -173 -83 86 0
-176 173 83 -86 0
-176 173 -83 86 0
176 173 -175 83 86 -84 0
176 173 -175 -83 -86 -84 0
-176 -173 -175 83 86 -84 0
-176 -173 -175 -83 -86 -84 0
178 175 -83 0
178 -175 83 0
-178 175 83 0
-178 -175 -83 0
177 86 -84 0
177 -86 84 0
-177 86 84 0
-177 -86 -84 0
179 -176 178 0
179 -176 82 0
-179 176 178 0
-179 176 82 0
179 -176 81 -84 0
179 -176 -81 84 0
-179 176 81 -84 0
-179 176 -81 84 0
179 176 -178 81 84 -82 0
179 176 -178 -81 -84 -82 0
-179 -176 -178 81 84 -82 0
-179 -176 -178 -81 -84 -82 0
181 178 -81 0
181 -178 81 0
-181 178 81 0
-181 -178 -81 0
180 84 -82 0
180 -84 82 0
-180 84 82 0
-180 -84 -82 0
182 -179 181 0
182 -179 80 0
-182 179 181 0
-182 179 80 0
182 -179 79 -82 0
182 -179 -79 82 0
-182 179 79 -82 0
-182 179 -79 82 0
182 179 -181 79 82 -80 0
182 179 -181 -79 -82 -80 0
-182 -179 -181 79 82 -80 0
-182 -179 -181 -79 -82 -80 0
184 181 -79 0
184 -181 79 0
-184 181 79 0
-184 -181 -79 0
183 82 -80 0
183 -82 80 0
-183 82 80 0
-183 -82 -80 0
185 -182 184 0
185 -182 78 0
-185 182 184 0
-185 182 78 0
185 -182 77 -80 0
185 -182 -77 80 0
-185 182 77 -80 0
-185 182 -77 80 0
185 182 -184 77 80 -78 0
185 182 -184 -77 -80 -78 0
-185 -182 -184 77 80 -78 0
-185 -182 -184 -77 -80 -78 0
187 184 -77 0
187 -184 77 0
-187 184 77 0
-187 -184 -77 0
186 80 -78 0
186 -80 78 0
-186 80 78 0
-186 -80 -78 0
188 -185 187 0
188 -185 76 0
-188 185 187 0
-188 185 76 0
188 -185 75 -78 0
188 -185 -75 78 0
-188 185 75 -78 0
-188 185 -75 78 0
188 185 -187 75 78 -76 0
188 185 -187 -75 -78 -76 0
-188 -185 -187 75 78 -76 0
-188 -185 -187 -75 -78 -76 0
190 187 -75 0
190 -187 75 0
-190 187 75 0
-190 -187 -75 0
189 78 -76 0
189 -78 76 0
-189 78 76 0
-189 -78 -76 0
191 -188 190 0
191 -188 74 0
-191 188 190 0
-191 188 74 0
191 -188 73 -76 0
191 -188 -73 76 0
-191 188 73 -76 0
-191 188 -73 76 0
191 188 -190 73 76 -74 0
191 188 -190 -73 -76 -74 0
-191 -188 -190 73 76 -74 0
-191 -188 -190 -73 -76 -74 0
193 190 -73 0
193 -190 73 0
-193 190 73 0
-193 -190 -73 0
192 76 -74 0
192 -76 74 0
-192 76 74 0
-192 -76 -74 0
194 -191 193 0
194 -191 72 0
-194 191 193 0
-194 191 72 0
194 -191 71 -74 0
194 -191 -71 74 0
-194 191 71 -74 0
-194 191 -71 74 0
194 191 -193 71 74 -72 0
194 191 -193 -71 -74 -72 0
-194 -191 -193 71 74 -72 0
-194 -191 -193 -71 -74 -72 0
196 193 -71 0
196 -193 71 0
-196 193 71 0
-196 -193 -71 0
195 74 -72 0
195 -74 72 0
-195 74 72 0
-195 -74 -72 0
197 -194 196 0
197 -194 70 0
-197 194 196 0
-197 194 70 0
197 -194 69 -72 0
197 -194 -69 72 0
-197 194 69 -72 0
-197 194 -69 72 0
197 194 -196 69 72 -70 0
197 194 -196 -69 -72 -70 0
-197 -194 -196 69 72 -70 0
-197 -194 -196 -69 -72 -70 0
199 196 -69 0
199 -196 69 0
-199 196 69 0
-199 -196 -69 0
198 72 -70 0
198 -72 70 0
-198 72 70 0
-198 -72 -70 0
200 -197 199 0
200 -197 68 0
-200 197 199 0
-200 197 68 0
200 -197 67 -70 0
200 -197 -67 70 0
-200 197 67 -70 0
-200 197 -67 70 0
200 197 -199 67 70 -68 0
200 197 -199 -67 -70 -68 0
-200 -197 -199 67 70 -68 0
-200 -197 -199 -67 -70 -68 0
202 199 -67 0
202 -199 67 0
-202 199 67 0
-202 -199 -67 0
201 70 -68 0
201 -70 68 0
-201 70 68 0
-201 -70 -68 0
203 -200 202 0
203 -200 66 0
-203 200 202 0
-203 200 66 0
203 -200 65 -68 0
203 -200 -65 68 0
-203 200 65 -68 0
-203 200 -65 68 0
203 200 -202 65 68 -66 0
203 200 -202 -65 -68 -66 0
-203 -200 -202 65 68 -66 0
-203 -200 -202 -65 -68 -66 0
205 202 -65 0
205 -202 65 0
-205 202 65 0
-205 -202 -65 0
204 68 -66 0
204 -68 66 0
-204 68 66 0
-204 -68 -66 0
206 -203 205 0
206 -203 64 0
-206 203 205 0
-206 203 64 0
206 -203 63 -66 0
206 -203 -63 66 0
-206 203 63 -66 0
-206 203 -63 66 0
206 203 -205 63 66 -64 0
206 203 -205 -63 -66 -64 0
-206 -203 -205 63 66 -64 0
-206 -203 -205 -63 -66 -64 0
208 205 -63 0
208 -205 63 0
-208 205 63 0
-208 -205 -63 0
207 66 -64 0
207 -66 64 0
-207 66 64 0
-207 -66 -64 0
209 -206 208 0
209 -206 62 0
-209 206 208 0
-209 206 62 0
209 -206 61 -64 0
209 -206 -61 64 0
-209 206 61 -64 0
-209 206 -61 64 0
209 206 -208 61 64 -62 0
209 206 -208 -61 -64 -62 0
-209 -206 -208 61 64 -62 0
-209 -206 -208 -61 -64 -62 0
211 208 -61 0
211 -208 61 0
-211 208 61 0
-211 -208 -61 0
210 64 -62 0
210 -64 62 0
-210 64 62 0
-210 -64 -62 0
212 -209 211 0
212 -209 60 0
-212 209 211 0
-212 209 60 0
212 -209 59 -62 0
212 -209 -59 62 0
-212 209 59 -62 0
-212 209 -59 62 0
212 209 -211 59 62 -60 0
212 209 -211 -59 -62 -60 0
-212 -209 -211 59 62 -60 0
-212 -209 -211 -59 -62 -60 0
214 211 -59 0
214 -211 59 0
-214 211 59 0
-214 -211 -59 0
213 62 -60 0
213 -62 60 0
-213 62 60 0
-213 -62 -60 0
215 -212 214 0
215 -212 58 0
-215 212 214 0
-215 212 58 0
215 -212 57 -60 0
215 -212 -57 60 0
-215 212 57 -60 0
-215 212 -57 60 0
215 212 -214 57 60 -58 0
215 212 -214 -57 -60 -58 0
-215 -212 -214 57 60 -58 0
-215 -212 -214 -57 -60 -58 0
217 214 -57 0
217 -214 57 0
-217 214 57 0
-217 -214 -57 0
216 60 -58 0
216 -60 58 0
-216 60 58 0
-216 -60 -58 0
218 -215 217 0
218 -215 56 0
-218 215 217 0
-218 215 56 0
218 -215 55 -58 0
218 -215 -55 58 0
-218 215 55 -58 0
-218 215 -55 58 0
218 215 -217 55 58 -56 0
218 215 -217 -55 -58 -56 0
-218 -215 -217 55 58 -56 0
-218 -215 -217 -55 -58 -56 0
220 217 -55 0
220 -217 55 0
-220 217 55 0
-220 -217 -55 0
219 58 -56 0
219 -58 56 0
-219 58 56 0
-219 -58 -56 0
221 -218 220 0
221 -218 54 0
-221 218 220 0
-221 218 54 0
221 -218 53 -56 0
221 -218 -53 56 0
-221 218 53 -56 0
-221 218 -53 56 0
221 218 -220 53 56 -54 0
221 218 -220 -53 -56 -54 0
-221 -218 -220 53 56 -54 0
-221 -218 -220 -53 -56 -54 0
223 220 -53 0
223 -220 53 0
-223 220 53 0
-223 -220 -53 0
222 56 -54 0
222 -56 54 0
-222 56 54 0
-222 -56 -54 0
224 -221 223 0
224 -221 52 0
-224 221 223 0
-224 221 52 0
224 -221 51 -54 0
224 -221 -51 54 0
-224 221 51 -54 0
-224 221 -51 54 0
224 221 -223 51 54 -52 0
224 221 -223 -51 -54 -52 0
-224 -221 -223 51 54 -52 0
-224 -221 -223 -51 -54 -52 0
226 223 -51 0
226 -223 51 0
-226 223 51 0
-226 -223 -51 0
225 54 -52 0
225 -54 52 0
-225 54 52 0
-225 -54 -52 0
227 -224 226 0
227 -224 50 0
-227 224 226 0
-227 224 50 0
227 -224 49 -52 0
227 -224 -49 52 0
-227 224 49 -52 0
-227 224 -49 52 0
227 224 -226 49 52 -50 0
227 224 -226 -49 -52 -50 0
-227 -224 -226 49 52 -50 0
-227 -224 -226 -49 -52 -50 0
229 226 -49 0
229 -226 49 0
-229 226 49 0
-229 -226 -49 0
228 52 -50 0
228 -52 50 0
-228 52 50 0
-228 -52 -50 0
230 -227 229 0
230 -227 48 0
-230 227 229 0
-230 227 48 0
230 -227 47 -50 0
230 -227 -47 50 0
-230 227 47 -50 0
-230 227 -47 50 0
230 227 -229 47 50 -48 0
230 227 -229 -47 -50 -48 0
-230 -227 -229 47 50 -48 0
-230 -227 -229 -47 -50 -48 0
232 229 -47 0
232 -229 47 0
-232 229 47 0
-232 -229 -47 0
231 50 -48 0
231 -50 48 0
-231 50 48 0
-231 -50 -48 0
233 -230 232 0
233 -230 46 0
-233 230 232 0
-233 230 46 0
233 -230 45 -48 0
233 -230 -45 48 0
-233 230 45 -48 0
-233 230 -45 48 0
233 230 -232 45 48 -46 0
233 230 -232 -45 -48 -46 0
-233 -230 -232 45 48 -46 0
-233 -230 -232 -45 -48 -46 0
235 232 -45 0
235 -232 45 0
-235 232 45 0
-235 -232 -45 0
234 48 -46 0
234 -48 46 0
-234 48 46 0
-234 -48 -46 0
236 -233 235 0
236 -233 44 0
-236 233 235 0
-236 233 44 0
236 -233 43 -46 0
236 -233 -43 46 0
-236 233 43 -46 0
-236 233 -43 46 0
236 233 -235 43 46 -44 0
236 233 -235 -43 -46 -44 0
-236 -233 -235 43 46 -44 0
-236 -233 -235 -43 -46 -44 0
238 235 -43 0
238 -235 43 0
-238 235 43 0
-238 -235 -43 0
237 46 -44 0
237 -46 44 0
-237 46 44 0
-237 -46 -44 0
239 -236 238 0
239 -236 42 0
-239 236 238 0
-239 236 42 0
239 -236 41 -44 0
239 -236 -41 44 0
-239 236 41 -44 0
-239 236 -41 44 0
239 236 -238 41 44 -42 0
239 236 -238 -41 -44 -42 0
-239 -236 -238 41 44 -42 0
-239 -236 -238 -41 -44 -42 0
241 238 -41 0
241 -238 41 0
-241 238 41 0
-241 -238 -41 0
240 44 -42 0
240 -44 42 0
-240 44 42 0
-240 -44 -42 0
242 -239 241 0
242 -239 40 0
-242 239 241 0
-242 239 40 0
242 -239 39 -42 0
242 -239 -39 42 0
-242 239 39 -42 0
-242 239 -39 42 0
242 239 -241 39 42 -40 0
242 239 -241 -39 -42 -40 0
-242 -239 -241 39 42 -40 0
-242 -239 -241 -39 -42 -40 0
244 241 -39 0
244 -241 39 0
-244 241 39 0
-244 -241 -39 0
243 42 -40 0
243 -42 40 0
-243 42 40 0
-243 -42 -40 0
245 -242 244 0
245 -242 38 0
-245 242 244 0
-245 242 38 0
245 -242 37 -40 0
245 -242 -37 40 0
-245 242 37 -40 0
-245 242 -37 40 0
245 242 -244 37 40 -38 0
245 242 -244 -37 -40 -38 0
-245 -242 -244 37 40 -38 0
-245 -242 -244 -37 -40 -38 0
247 244 -37 0
247 -244 37 0
-247 244 37 0
-247 -244 -37 0
246 40 -38 0
246 -40 38 0
-246 40 38 0
-246 -40 -38 0
248 -245 247 0
248 -245 36 0
-248 245 247 0
-248 245 36 0
248 -245 35 -38 0
248 -245 -35 38 0
-248 245 35 -38 0
-248 245 -35 38 0
248 245 -247 35 38 -36 0
248 245 -247 -35 -38 -36 0
-248 -245 -247 35 38 -36 0
-248 -245 -247 -35 -38 -36 0
250 247 -35 0
250 -247 35 0
-250 247 35 0
-250 -247 -35 0
249 38 -36 0
249 -38 36 0
-249 38 36 0
-249 -38 -36 0
251 -248 250 0
251 -248 34 0
-251 248 250 0
-251 248 34 0
251 -248 33 -36 0
251 -248 -33 36 0
-251 248 33 -36 0
-251 248 -33 36 0
251 248 -250 33 36 -34 0
251 248 -250 -33 -36 -34 0
-251 -248 -250 33 36 -34 0
-251 -248 -250 -33 -36 -34 0
253 250 -33 0
253 -250 33 0
-253 250 33 0
-253 -250 -33 0
252 36 -34 0
252 -36 34 0
-252 36 34 0
-252 -36 -34 0
254 -251 253 0
254 -251 32 0
-254 251 253 0
-254 251 32 0
254 -251 31 -34 0
254 -251 -31 34 0
-254 251 31 -34 0
-254 251 -31 34 0
254 251 -253 31 34 -32 0
254 251 -253 -31 -34 -32 0
-254 -251 -253 31 34 -32 0
-254 -251 -253 -31 -34 -32 0
256 253 -31 0
256 -253 31 0
-256 253 31 0
-256 -253 -31 0
255 34 -32 0
255 -34 32 0
-255 34 32 0
-255 -34 -32 0
257 -254 256 0
257 -254 30 0
-257 254 256 0
-257 254 30 0
257 -254 29 -32 0
257 -254 -29 32 0
-257 254 29 -32 0
-257 254 -29 32 0
257 254 -256 29 32 -30 0
257 254 -256 -29 -32 -30 0
-257 -254 -256 29 32 -30 0
-257 -254 -256 -29 -32 -30 0
259 256 -29 0
259 -256 29 0
-259 256 29 0
-259 -256 -29 0
258 32 -30 0
258 -32 30 0
-258 32 30 0
-258 -32 -30 0
260 -257 259 0
260 -257 28 0
-260 257 259 0
-260 257 28 0
260 -257 27 -30 0
260 -257 -27 30 0
-260 257 27 -30 0
-260 257 -27 30 0
260 257 -259 27 30 -28 0
260 257 -259 -27 -30 -28 0
-260 -257 -259 27 30 -28 0
-260 -257 -259 -27 -30 -28 0
262 259 -27 0
262 -259 27 0
-262 259 27 0
-262 -259 -27 0
261 30 -28 0
261 -30 28 0
-261 30 28 0
-261 -30 -28 0
263 -260 262 0
263 -260 26 0
-263 260 262 0
-263 260 26 0
263 -260 25 -28 0
263 -260 -25 28 0
-263 260 25 -28 0
-263 260 -25 28 0
263 260 -262 25 28 -26 0
263 260 -262 -25 -28 -26 0
-263 -260 -262 25 28 -26 0
-263 -260 -262 -25 -28 -26 0
265 262 -25 0
265 -262 25 0
-265 262 25 0
-265 -262 -25 0
264 28 -26 0
264 -28 26 0
-264 28 26 0
-264 -28 -26 0
266 -263 265 0
266 -263 24 0
-266 263 265 0
-266 263 24 0
266 -263 23 -26 0
266 -263 -23 26 0
-266 263 23 -26 0
-266 263 -23 26 0
266 263 -265 23 26 -24 0
266 263 -265 -23 -26 -24 0
-266 -263 -265 23 26 -24 0
-266 -263 -265 -23 -26 -24 0
268 265 -23 0
268 -265 23 0
-268 265 23 0
-268 -265 -23 0
267 26 -24 0
267 -26 24 0
-267 26 24 0
-267 -26 -24 0
269 -266 268 0
269 -266 22 0
-269 266 268 0
-269 266 22 0
269 -266 21 -24 0
269 -266 -21 24 0
-269 266 21 -24 0
-269 266 -21 24 0
269 266 -268 21 24 -22 0
269 266 -268 -21 -24 -22 0
-269 -266 -268 21 24 -22 0
-269 -266 -268 -21 -24 -22 0
271 268 -21 0
271 -268 21 0
-271 268 21 0
-271 -268 -21 0
270 24 -22 0
270 -24 22 0
-270 24 22 0
-270 -24 -22 0
272 -269 271 0
272 -269 20 0
-272 269 271 0
-272 269 20 0
272 -269 19 -22 0
272 -269 -19 22 0
-272 269 19 -22 0
-272 269 -19 22 0
272 269 -271 19 22 -20 0
272 269 -271 -19 -22 -20 0
-272 -269 -271 19 22 -20 0
-272 -269 -271 -19 -22 -20 0
274 271 -19 0
274 -271 19 0
-274 271 19 0
-274 -271 -19 0
273 22 -20 0
273 -22 20 0
-273 22 20 0
-273 -22 -20 0
275 -272 274 0
275 -272 18 0
-275 272 274 0
-275 272 18 0
275 -272 17 -20 0
275 -272 -17 20 0
-275 272 17 -20 0
-275 272 -17 20 0
275 272 -274 17 20 -18 0
275 272 -274 -17 -20 -18 0
-275 -272 -274 17 20 -18 0
-275 -272 -274 -17 -20 -18 0
277 274 -17 0
277 -274 17 0
-277 274 17 0
-277 -274 -17 0
276 20 -18 0
276 -20 18 0
-276 20 18 0
-276 -20 -18 0
278 -275 277 0
278 -275 16 0
-278 275 277 0
-278 275 16 0
278 -275 15 -18 0
278 -275 -15 18 0
-278 275 15 -18 0
-278 275 -15 18 0
278 275 -277 15 18 -16 0
278 275 -277 -15 -18 -16 0
-278 -275 -277 15 18 -16 0
-278 -275 -277 -15 -18 -16 0
280 277 -15 0
280 -277 15 0
-280 277 15 0
-280 -277 -15 0
279 18 -16 0
279 -18 16 0
-279 18 16 0
-279 -18 -16 0
281 -278 280 0
281 -278 14 0
-281 278 280 0
-281 278 14 0
281 -278 13 -16 0
281 -278 -13 16 0
-281 278 13 -16 0
-281 278 -13 16 0
281 278 -280 13 16 -14 0
281 278 -280 -13 -16 -14 0
-281 -278 -280 13 16 -14 0
-281 -278 -280 -13 -16 -14 0
283 280 -13 0
283 -280 13 0
-283 280 13 0
-283 -280 -13 0
282 16 -14 0
282 -16 14 0
-282 16 14 0
-282 -16 -14 0
284 -281 283 0
284 -281 12 0
-284 281 283 0
-284 281 12 0
284 -281 11 -14 0
284 -281 -11 14 0
-284 281 11 -14 0
-284 281 -11 14 0
284 281 -283 11 14 -12 0
284 281 -283 -11 -14 -12 0
-284 -281 -283 11 14 -12 0
-284 -281 -283 -11 -14 -12 0
286 283 -11 0
286 -283 11 0
-286 283 11 0
-286 -283 -11 0
285 14 -12 0
285 -14 12 0
-285 14 12 0
-285 -14 -12 0
287 -284 286 0
287 -284 10 0
-287 284 286 0
-287 284 10 0
287 -284 9 -12 0
287 -284 -9 12 0
-287 284 9 -12 0
-287 284 -9 12 0
287 284 -286 9 12 -10 0
287 284 -286 -9 -12 -10 0
-287 -284 -286 9 12 -10 0
-287 -284 -286 -9 -12 -10 0
289 286 -9 0
289 -286 9 0
-289 286 9 0
-289 -286 -9 0
288 12 -10 0
288 -12 10 0
-288 12 10 0
-288 -12 -10 0
290 -287 289 0
290 -287 8 0
-290 287 289 0
-290 287 8 0
290 -287 7 -10 0
290 -287 -7 10 0
-290 287 7 -10 0
-290 287 -7 10 0
290 287 -289 7 10 -8 0
290 287 -289 -7 -10 -8 0
-290 -287 -289 7 10 -8 0
-290 -287 -289 -7 -10 -8 0
292 289 -7 0
292 -289 7 0
-292 289 7 0
-292 -289 -7 0
291 10 -8 0
291 -10 8 0
-291 10 8 0
-291 -10 -8 0
293 -290 292 0
293 -290 6 0
-293 290 292 0
-293 290 6 0
293 -290 5 -8 0
293 -290 -5 8 0
-293 290 5 -8 0
-293 290 -5 8 0
293 290 -292 5 8 -6 0
293 290 -292 -5 -8 -6 0
-293 -290 -292 5 8 -6 0
-293 -290 -292 -5 -8 -6 0
295 292 -5 0
295 -292 5 0
-295 292 5 0
-295 -292 -5 0
294 8 -6 0
294 -8 6 0
-294 8 6 0
-294 -8 -6 0
296 -293 295 0
296 -293 4 0
-296 293 295 0
-296 293 4 0
296 -293 3 -6 0
296 -293 -3 6 0
-296 293 3 -6 0
-296 293 -3 6 0
296 293 -295 3 6 -4 0
296 293 -295 -3 -6 -4 0
-296 -293 -295 3 6 -4 0
-296 -293 -295 -3 -6 -4 0
298 295 -3 0
298 -295 3 0
-298 295 3 0
-298 -295 -3 0
297 6 -4 0
297 -6 4 0
-297 6 4 0
-297 -6 -4 0
299 -296 298 0
299 -296 2 0
-299 296 298 0
-299 296 2 0
299 -296 1 -4 0
299 -296 -1 4 0
-299 296 1 -4 0
-299 296 -1 4 0
299 296 -298 1 4 -2 0
299 296 -298 -1 -4 -2 0
-299 -296 -298 1 4 -2 0
-299 -296 -298 -1 -4 -2 0
301 298 -1 0
301 -298 1 0
-301 298 1 0
-301 -298 -1 0
300 4 -2 0
300 -4 2 0
-300 4 2 0
-300 -4 -2 0
-301 0
-298 0
-300 0
-295 0
-297 0
-292 0
-294 0
-289 0
-291 0
-286 0
-288 0
-283 0
-285 0
-280 0
-282 0
-277 0
-279 0
-274 0
-276 0
-271 0
-273 0
-268 0
-270 0
-265 0
-267 0
-262 0
-264 0
-259 0
-261 0
-256 0
-258 0
-253 0
-255 0
-250 0
-252 0
-247 0
-249 0
-244 0
-246 0
-241 0
-243 0
-238 0
-240 0
-235 0
-237 0
-232 0
-234 0
-229 0
-231 0
-226 0
-228 0
-223 0
-225 0
-220 0
-222 0
-217 0
-219 0
-214 0
-216 0
-211 0
-213 0
-208 0
-210 0
-205 0
-207 0
-202 0
-204 0
-199 0
-201 0
-196 0
-198 0
-193 0
-195 0
-190 0
-192 0
-187 0
-189 0
-184 0
-186 0
-181 0
-183 0
-178 0
-180 0
-175 0
-177 0
-172 0
-174 0
-169 0
-171 0
-166 0
-168 0
-163 0
-165 0
-160 0
-162 0
-157 0
-159 0
-154 0
-156 0
-151 0
-153 0
-148 0
-150 0
-145 0
-147 0
-142 0
-144 0
-139 0
-141 0
-136 0
-138 0
-133 0
-135 0
-130 0
-132 0
-123 0
-129 0
